TYPE : Vertex Cover
DIMENSION: 27
EDGE_DATA_SECTION:
0 4
0 5
0 7
0 11
0 13
0 15
0 22
0 25
1 5
1 14
1 16
1 19
1 22
1 24
2 6
2 7
3 6
3 8
3 16
3 18
3 19
3 21
3 26
4 5
4 6
4 20
4 26
5 11
5 22
6 13
6 17
6 24
6 25
7 10
7 14
7 16
8 9
8 10
8 13
8 14
8 20
8 21
8 25
9 20
9 26
10 13
10 16
10 25
11 22
11 25
12 15
12 16
12 18
12 20
12 22
12 23
12 24
13 14
13 18
13 23
13 24
14 15
14 19
14 21
14 22
15 24
16 25
18 24
18 26
19 20
19 21
19 22
19 23
20 22
21 23
22 24
22 25
23 24
24 25
25 26
-1
VERTEX_DEGREE:
8.0 6.0 2.0 7.0 5.0 5.0 7.0 5.0 8.0 3.0 5.0 4.0 7.0 8.0 8.0 4.0 6.0 1.0 5.0 7.0 6.0 5.0 10.0 5.0 9.0 9.0 5.0
VERTEX_COVER:
0 5 6 7 8 12 13 14 16 18 19 20 21 22 24 25 26
EOF
